37 37
27
3 3   30 34
3 4   0 18
3 5   15 32
3 6   15 12
3 7   0 30
3 8   0 22
3 9   3 28
3 11  3 17
3 12  15 0 
3 13  30 21
3 14  15 18
3 17  3 0 
3 18  0 0 
3 21  30 0 
4 3   33 0 
4 4   33 33
4 5   11 32
4 6   33 27
4 10  6 0 
4 22  11 10
4 24  33 3 
5 3   6 10
5 4   10 6 
5 6   10 0 
5 10  6 13
5 14  6 23
12 37  18 0 
